Welcome to the CBC MILP Solver 
Version: 2.10.10 
Build Date: Apr 19 2023 

command line - cbc /tmp/1d3fc62b7e974f3d8fa87ae046ee68ae-pulp.mps max sec 15 timeMode elapsed branch printingOptions all solution /tmp/1d3fc62b7e974f3d8fa87ae046ee68ae-pulp.sol (default strategy 1)
At line 2 NAME          MODEL
At line 3 ROWS
At line 22634 COLUMNS
At line 85666 RHS
At line 108296 BOUNDS
At line 115697 ENDATA
Problem MODEL has 22629 rows, 7400 columns and 61865 elements
Coin0008I MODEL read with 0 errors
seconds was changed from 1e+100 to 15
Option for timeMode changed from cpu to elapsed
Presolve 3763 (-18866) rows, 2524 (-4876) columns and 12123 (-49742) elements
Perturbing problem by 0.001% of 1 - largest nonzero change 0.00099612054 ( 0.19922411%) - largest zero change 0.00099601216
0  Obj 1 Primal inf 93.908449 (63) Dual inf 39.812583 (75)
150  Obj 17.960209 Primal inf 275.61421 (258)
300  Obj 17.947976 Primal inf 247.53702 (325)
450  Obj 17.941361 Primal inf 202.38215 (283)
600  Obj 17.939058 Primal inf 182.35429 (217)
750  Obj 17.936525 Primal inf 127.05248 (170)
900  Obj 17.929086 Primal inf 174.15877 (123)
1050  Obj 17.925874 Primal inf 42.026707 (56)
1171  Obj 17.924885
Optimal - objective value 18
After Postsolve, objective 18, infeasibilities - dual 0 (0), primal 0 (0)
Optimal objective 18 - 1171 iterations time 0.092, Presolve 0.07
Option for printingOptions changed from normal to all
Total time (CPU seconds):       0.34   (Wallclock seconds):       0.14

Welcome to the CBC MILP Solver 
Version: 2.10.10 
Build Date: Apr 19 2023 

command line - cbc /tmp/88230b2fe77b4906817a3ddb9f0d4466-pulp.mps max sec 15 timeMode elapsed branch printingOptions all solution /tmp/88230b2fe77b4906817a3ddb9f0d4466-pulp.sol (default strategy 1)
At line 2 NAME          MODEL
At line 3 ROWS
At line 22634 COLUMNS
At line 100466 RHS
At line 123096 BOUNDS
At line 130497 ENDATA
Problem MODEL has 22629 rows, 7400 columns and 61865 elements
Coin0008I MODEL read with 0 errors
seconds was changed from 1e+100 to 15
Option for timeMode changed from cpu to elapsed
Continuous objective value is 18 - 0.08 seconds
Cgl0002I 3215 variables fixed
Cgl0003I 564 fixed, 0 tightened bounds, 2049 strengthened rows, 984 substitutions
Cgl0003I 0 fixed, 0 tightened bounds, 518 strengthened rows, 32 substitutions
Cgl0003I 0 fixed, 0 tightened bounds, 869 strengthened rows, 0 substitutions
Cgl0003I 81 fixed, 0 tightened bounds, 418 strengthened rows, 532 substitutions
Cgl0003I 0 fixed, 0 tightened bounds, 227 strengthened rows, 36 substitutions
Cgl0003I 12 fixed, 0 tightened bounds, 160 strengthened rows, 512 substitutions
Cgl0003I 0 fixed, 0 tightened bounds, 118 strengthened rows, 40 substitutions
Cgl0003I 4 fixed, 0 tightened bounds, 95 strengthened rows, 104 substitutions
Cgl0003I 0 fixed, 0 tightened bounds, 35 strengthened rows, 0 substitutions
Cgl0003I 2 fixed, 0 tightened bounds, 46 strengthened rows, 60 substitutions
Cgl0003I 0 fixed, 0 tightened bounds, 14 strengthened rows, 0 substitutions
Cgl0003I 0 fixed, 0 tightened bounds, 20 strengthened rows, 60 substitutions
Cgl0003I 0 fixed, 0 tightened bounds, 5 strengthened rows, 6 substitutions
Cgl0003I 0 fixed, 0 tightened bounds, 5 strengthened rows, 0 substitutions
Cgl0004I processed model has 1825 rows, 1633 columns (1633 integer (1594 of which binary)) and 7666 elements
Cbc0038I Initial state - 44 integers unsatisfied sum - 19.6667
Cbc0038I Pass   1: suminf.    6.16667 (17) obj. 17.5 iterations 275
Cbc0038I Pass   2: suminf.    6.16667 (17) obj. 17.5 iterations 18
Cbc0038I Pass   3: suminf.    6.16667 (17) obj. 17.5 iterations 17
Cbc0038I Pass   4: suminf.    6.66667 (18) obj. 17 iterations 283
Cbc0038I Pass   5: suminf.    6.66667 (18) obj. 17 iterations 203
Cbc0038I Pass   6: suminf.    5.66667 (16) obj. 17 iterations 97
Cbc0038I Pass   7: suminf.    2.00000 (4) obj. 17 iterations 58
Cbc0038I Pass   8: suminf.    2.00000 (4) obj. 17 iterations 23
Cbc0038I Pass   9: suminf.    2.00000 (4) obj. 17 iterations 45
Cbc0038I Pass  10: suminf.    2.00000 (4) obj. 17 iterations 15
Cbc0038I Pass  11: suminf.    2.00000 (4) obj. 17 iterations 46
Cbc0038I Pass  12: suminf.    2.00000 (4) obj. 17 iterations 232
Cbc0038I Pass  13: suminf.    2.00000 (4) obj. 17 iterations 185
Cbc0038I Pass  14: suminf.    2.00000 (4) obj. 17 iterations 21
Cbc0038I Pass  15: suminf.    2.00000 (4) obj. 17 iterations 10
Cbc0038I Pass  16: suminf.    2.00000 (4) obj. 17 iterations 227
Cbc0038I Pass  17: suminf.    2.00000 (4) obj. 17 iterations 185
Cbc0038I Pass  18: suminf.    2.00000 (4) obj. 17 iterations 15
Cbc0038I Pass  19: suminf.    2.00000 (4) obj. 17 iterations 75
Cbc0038I Pass  20: suminf.    2.00000 (4) obj. 17 iterations 57
Cbc0038I Pass  21: suminf.    2.00000 (4) obj. 17 iterations 31
Cbc0038I Pass  22: suminf.    2.00000 (4) obj. 17 iterations 15
Cbc0038I Pass  23: suminf.    4.00000 (8) obj. 17.5 iterations 205
Cbc0038I Pass  24: suminf.    2.00000 (4) obj. 18 iterations 163
Cbc0038I Pass  25: suminf.    2.00000 (4) obj. 18 iterations 44
Cbc0038I Pass  26: suminf.    2.00000 (4) obj. 18 iterations 76
Cbc0038I Pass  27: suminf.    2.00000 (4) obj. 18 iterations 42
Cbc0038I Pass  28: suminf.    5.00000 (10) obj. 16.5 iterations 195
Cbc0038I Pass  29: suminf.    2.00000 (4) obj. 17 iterations 183
Cbc0038I Pass  30: suminf.    2.00000 (4) obj. 17 iterations 19
Cbc0038I No solution found this major pass
Cbc0038I Before mini branch and bound, 1549 integers at bound fixed and 0 continuous
Cbc0038I Full problem 1825 rows 1633 columns, reduced to 89 rows 65 columns
Cbc0038I Mini branch and bound did not improve solution (0.45 seconds)
Cbc0038I After 0.45 seconds - Feasibility pump exiting - took 0.18 seconds
Cbc0031I 4 added rows had average density of 434.25
Cbc0013I At root node, 4 cuts changed objective from 18 to 18 in 10 passes
Cbc0014I Cut generator 0 (Probing) - 0 row cuts average 0.0 elements, 0 column cuts (0 active)  in 0.027 seconds - new frequency is -100
Cbc0014I Cut generator 1 (Gomory) - 64 row cuts average 571.1 elements, 0 column cuts (0 active)  in 0.044 seconds - new frequency is -100
Cbc0014I Cut generator 2 (Knapsack) - 0 row cuts average 0.0 elements, 0 column cuts (0 active)  in 0.012 seconds - new frequency is -100
Cbc0014I Cut generator 3 (Clique) - 0 row cuts average 0.0 elements, 0 column cuts (0 active)  in 0.001 seconds - new frequency is -100
Cbc0014I Cut generator 4 (MixedIntegerRounding2) - 0 row cuts average 0.0 elements, 0 column cuts (0 active)  in 0.010 seconds - new frequency is -100
Cbc0014I Cut generator 5 (FlowCover) - 0 row cuts average 0.0 elements, 0 column cuts (0 active)  in 0.004 seconds - new frequency is -100
Cbc0014I Cut generator 6 (TwoMirCuts) - 25 row cuts average 60.2 elements, 0 column cuts (0 active)  in 0.014 seconds - new frequency is -100
Cbc0010I After 0 nodes, 1 on tree, -1e+50 best solution, best possible 18 (0.73 seconds)
Cbc0004I Integer solution of 17 found after 2332 iterations and 23 nodes (1.57 seconds)
Cbc0038I Full problem 1825 rows 1633 columns, reduced to 80 rows 69 columns
Cbc0012I Integer solution of 18 found by RINS after 2390 iterations and 24 nodes (1.59 seconds)
Cbc0001I Search completed - best objective 17.9999999999999, took 2390 iterations and 24 nodes (1.59 seconds)
Cbc0032I Strong branching done 520 times (13234 iterations), fathomed 0 nodes and fixed 2 variables
Cbc0035I Maximum depth 15, 23 variables fixed on reduced cost
Cuts at root node changed objective from 18 to 18
Probing was tried 10 times and created 0 cuts of which 0 were active after adding rounds of cuts (0.027 seconds)
Gomory was tried 10 times and created 64 cuts of which 0 were active after adding rounds of cuts (0.044 seconds)
Knapsack was tried 10 times and created 0 cuts of which 0 were active after adding rounds of cuts (0.012 seconds)
Clique was tried 10 times and created 0 cuts of which 0 were active after adding rounds of cuts (0.001 seconds)
MixedIntegerRounding2 was tried 10 times and created 0 cuts of which 0 were active after adding rounds of cuts (0.010 seconds)
FlowCover was tried 10 times and created 0 cuts of which 0 were active after adding rounds of cuts (0.004 seconds)
TwoMirCuts was tried 10 times and created 25 cuts of which 0 were active after adding rounds of cuts (0.014 seconds)
ZeroHalf was tried 1 times and created 0 cuts of which 0 were active after adding rounds of cuts (0.002 seconds)

Result - Optimal solution found

Objective value:                18.00000000
Enumerated nodes:               24
Total iterations:               2390
Time (CPU seconds):             1.64
Time (Wallclock seconds):       1.63

Option for printingOptions changed from normal to all
Total time (CPU seconds):       1.90   (Wallclock seconds):       1.73

